Problem:    
Rows:       105
Columns:    45 (34 integer, 34 binary)
Non-zeros:  302
Status:     INTEGER OPTIMAL
Objective:  value = 12.2959 (MINimum)

   No.   Row name        Activity     Lower bound   Upper bound
------ ------------    ------------- ------------- -------------
     1 r.5                    2012.3             0               
     2 r.6                   -1987.7      -1993.09               
     3 r.7                   12.2959             0               
     4 r.8                   4.00346      -1992.17               
     5 r.9                   12.2959             0               
     6 r.10                   -0.602      -1998.29               
     7 r.11                   2012.3             0               
     8 r.12                  -1987.7      -1998.91               
     9 r.13                   2012.3             0               
    10 r.14                 -1994.62      -1997.33               
    11 r.15                  12.2959             0               
    12 r.16                  6.50276       -1997.5               
    13 r.17                  12.2959             0               
    14 r.18                   2.7074      -1996.69               
    15 r.19                   2012.3             0               
    16 r.20                 -1988.79      -1995.29               
    17 r.21                   2012.3             0               
    18 r.22                 -1999.79      -1999.79               
    19 r.23                  12.2959             0               
    20 r.24                   0.2074         -1999               
    21 r.25                        1             1             = 
    22 r.26                        1             1             = 
    23 r.27                        1             1             = 
    24 r.28                        1             1             = 
    25 r.29                        1             1             = 
    26 r.30                   1987.1        1.7143               
    27 r.31                  -1987.1      -1993.09               
    28 r.32                  8.29244       1.08789               
    29 r.33                 -8.29244      -1992.17               
    30 r.34                  1993.09        2.6738               
    31 r.35                 -1993.09      -1993.09               
    32 r.36                   2.4993        2.4993               
    33 r.37                  -2.4993      -1992.17               
    34 r.38                  1990.41        3.3094               
    35 r.39                 -1990.41      -1993.09               
    36 r.40                  7.20455       4.70525               
    37 r.41                 -7.20455      -1992.17               
    38 r.42                 -1987.91      -1990.59               
    39 r.43                  3.79606      -1987.17               
    40 r.44                 -1987.91      -1990.59               
    41 r.45                  3.79606      -1987.17               
    42 r.46                  12.8979        6.9147               
    43 r.47                 -12.8979      -1998.29               
    44 r.48                  1991.71       7.83486               
    45 r.49                 -1991.71      -1998.91               
    46 r.50                   5.9832        2.6738               
    47 r.51                  -5.9832      -1998.29               
    48 r.52                  1994.21        2.4993               
    49 r.53                 -1994.21      -1998.91               
    50 r.54                   3.3094        3.3094               
    51 r.55                  -3.3094      -1998.29               
    52 r.56                  1998.91       4.70525               
    53 r.57                 -1998.91      -1998.91               
    54 r.58                  -0.8094      -1995.79               
    55 r.59                 -1987.91      -1993.91               
    56 r.60                  -0.8094      -1995.79               
    57 r.61                 -1987.91      -1993.91               
    58 r.62                   6.9147        6.9147               
    59 r.63                  -6.9147      -1997.33               
    60 r.64                   1997.5       7.83486               
    61 r.65                  -1997.5       -1997.5               
    62 r.66                  1994.02        1.7143               
    63 r.67                 -1994.02      -1997.33               
    64 r.68                  5.79314       1.08789               
    65 r.69                 -5.79314       -1997.5               
    66 r.70                  1997.33        3.3094               
    67 r.71                 -1997.33      -1997.33               
    68 r.72                  4.70525       4.70525               
    69 r.73                 -4.70525       -1997.5               
    70 r.74                 -1994.83      -1994.83               
    71 r.75                  6.29536       -1992.5               
    72 r.76                 -1994.83      -1994.83               
    73 r.77                  6.29536       -1992.5               
    74 r.78                   9.5885        6.9147               
    75 r.79                  -9.5885      -1996.69               
    76 r.80                   1992.8       7.83486               
    77 r.81                  -1992.8      -1995.29               
    78 r.82                  1996.69        1.7143               
    79 r.83                 -1996.69      -1996.69               
    80 r.84                  1.08789       1.08789               
    81 r.85                 -1.08789      -1995.29               
    82 r.86                   2.6738        2.6738               
    83 r.87                  -2.6738      -1996.69               
    84 r.88                  1995.29        2.4993               
    85 r.89                 -1995.29      -1995.29               
    86 r.90                      2.5      -1994.19               
    87 r.91                    -1989      -1990.29               
    88 r.92                      2.5      -1994.19               
    89 r.93                    -1989      -1990.29               
    90 r.94                 -1987.91      -1990.59               
    91 r.95                  3.79606      -1987.17               
    92 r.96                 -1987.91      -1990.59               
    93 r.97                  3.79606      -1987.17               
    94 r.98                  -0.8094      -1995.79               
    95 r.99                 -1987.91      -1993.91               
    96 r.100                 -0.8094      -1995.79               
    97 r.101                -1987.91      -1993.91               
    98 r.102                -1994.83      -1994.83               
    99 r.103                 6.29536       -1992.5               
   100 r.104                -1994.83      -1994.83               
   101 r.105                 6.29536       -1992.5               
   102 r.106                     2.5      -1994.19               
   103 r.107                   -1989      -1990.29               
   104 r.108                     2.5      -1994.19               
   105 r.109                   -1989      -1990.29               

   No. Column name       Activity     Lower bound   Upper bound
------ ------------    ------------- ------------- -------------
     1 tt                    12.2959             0               
     2 s_1_1        *              1             0             1 
     3 t_1_1                       0             0               
     4 s_2_1        *              0             0             1 
     5 t_2_1                 8.29244             0               
     6 s_1_2        *              0             0             1 
     7 t_1_2                 12.8979             0               
     8 s_2_2        *              1             0             1 
     9 t_2_2                       0             0               
    10 s_1_3        *              1             0             1 
    11 t_1_3                  6.9147             0               
    12 s_2_3        *              0             0             1 
    13 t_2_3                 5.79314             0               
    14 s_1_4        *              0             0             1 
    15 t_1_4                  9.5885             0               
    16 s_2_4        *              1             0             1 
    17 t_2_4                 1.08789             0               
    18 s_1_5        *              1             0             1 
    19 t_1_5                 12.0885             0               
    20 s_2_5        *              0             0             1 
    21 t_2_5                 12.0885             0               
    22 u_1_1_2      *              1             0             1 
    23 u_2_1_2      *              0             0             1 
    24 u_1_1_3      *              1             0             1 
    25 u_2_1_3      *              0             0             1 
    26 u_1_1_4      *              1             0             1 
    27 u_2_1_4      *              0             0             1 
    28 u_1_2_1      *              0             0             1 
    29 u_2_2_1      *              1             0             1 
    30 u_1_2_3      *              0             0             1 
    31 u_2_2_3      *              1             0             1 
    32 u_1_2_4      *              0             0             1 
    33 u_2_2_4      *              1             0             1 
    34 u_1_3_1      *              0             0             1 
    35 u_2_3_1      *              1             0             1 
    36 u_1_3_2      *              1             0             1 
    37 u_2_3_2      *              0             0             1 
    38 u_1_3_4      *              1             0             1 
    39 u_2_3_4      *              0             0             1 
    40 u_1_4_1      *              0             0             1 
    41 u_2_4_1      *              1             0             1 
    42 u_1_4_2      *              1             0             1 
    43 u_2_4_2      *              0             0             1 
    44 u_1_4_3      *              0             0             1 
    45 u_2_4_3      *              1             0             1 

Integer feasibility conditions:

KKT.PE: max.abs.err = 0.00e+00 on row 0
        max.rel.err = 0.00e+00 on row 0
        High quality

KKT.PB: max.abs.err = 9.55e-14 on row 80
        max.rel.err = 4.57e-14 on row 80
        High quality

End of output
